
Gurobi 10.0.1 (linux64) logging started Sun Nov 26 15:45:01 2023

Set parameter LogFile to value "ArtificialInstance/ExperimentV2/S3T4K1/AdRo/gurobi91.txt"
Gurobi Optimizer version 10.0.1 build v10.0.1rc0 (linux64)

CPU model: AMD EPYC 7H12 64-Core Processor, instruction set [SSE2|AVX|AVX2]
Thread count: 128 physical cores, 128 logical processors, using up to 32 threads

Academic license 656792 - for non-commercial use only - registered to b.___@student.vu.nl
Optimize a model with 3711 rows, 3525 columns and 13827 nonzeros
Model fingerprint: 0xa38a2721
Variable types: 1 continuous, 3524 integer (3524 binary)
Coefficient statistics:
  Matrix range     [1e+00, 4e+01]
  Objective range  [1e+00, 2e+01]
  Bounds range     [1e+00, 1e+00]
  RHS range        [1e+00, 1e+00]
Presolve removed 354 rows and 330 columns
Presolve time: 0.05s
Presolved: 3357 rows, 3195 columns, 12827 nonzeros
Variable types: 1 continuous, 3194 integer (3194 binary)
Found heuristic solution: objective 200.4006623

Root relaxation: objective 4.728903e+01, 2738 iterations, 0.12 seconds (0.10 work units)

    Nodes    |    Current Node    |     Objective Bounds      |     Work
 Expl Unexpl |  Obj  Depth IntInf | Incumbent    BestBd   Gap | It/Node Time

     0     0   47.28903    0  282  200.40066   47.28903  76.4%     -    0s
H    0     0                     181.0564015   47.28903  73.9%     -    0s
H    0     0                     132.0369369   47.28903  64.2%     -    0s
H    0     0                      58.3446508   47.28903  18.9%     -    0s
H    0     0                      53.8336130   51.28897  4.73%     -    0s
H    0     0                      52.8119552   51.28897  2.88%     -    0s
     0     0   52.81196    0  503   52.81196   52.81196  0.00%     -    0s

Cutting planes:
  Gomory: 6
  Zero half: 18

Explored 1 nodes (5878 simplex iterations) in 0.49 seconds (0.34 work units)
Thread count was 32 (of 128 available processors)

Solution count 6: 52.812 53.8336 58.3447 ... 200.401

Optimal solution found (tolerance 1.00e-04)
Best objective 5.281195523457e+01, best bound 5.281195523457e+01, gap 0.0000%
